% seed = 0

mint = 25;
% maxt = 80;

nActs = 32;
dur = [0,2,6,3,4,4,4,3,1,3,1,2,5,1,2,3,5,3,1,2,2,2,1,4,3,2,2,2,2,2,3,0];

nSkills = 15;
sreq = [| 0,0,0,0,0,0,0,0,0,0,0,0,0,0,0,
	| 0,0,1,0,1,0,1,0,0,0,0,0,0,0,0,
	| 1,1,0,0,0,0,0,0,1,0,1,0,1,0,0,
	| 0,0,0,0,0,0,0,0,1,0,0,0,0,0,0,
	| 0,0,0,0,0,0,0,0,1,0,0,0,0,0,0,
	| 0,0,0,0,0,0,0,0,0,0,0,0,0,1,0,
	| 0,0,2,0,0,0,1,0,0,0,0,2,2,0,0,
	| 0,0,0,0,1,0,0,0,0,0,0,1,1,0,0,
	| 0,0,0,0,0,0,0,0,0,0,0,0,1,0,0,
	| 0,1,0,1,0,0,1,1,1,0,0,1,0,0,0,
	| 0,1,0,0,0,0,1,0,0,0,0,2,0,0,1,
	| 0,1,0,1,0,0,0,0,0,0,1,0,0,0,0,
	| 0,0,0,0,0,0,1,0,1,1,0,1,0,0,0,
	| 0,0,0,1,0,0,1,0,1,0,0,1,1,1,0,
	| 0,0,1,2,0,0,0,1,2,0,1,0,0,0,0,
	| 0,0,1,1,0,0,0,0,1,0,0,0,0,1,0,
	| 0,0,1,0,0,0,0,0,0,0,0,0,0,0,0,
	| 1,0,2,0,1,0,1,0,0,0,0,0,0,1,0,
	| 0,1,0,0,0,0,1,0,2,1,0,0,0,1,0,
	| 0,0,1,0,0,0,0,0,1,0,0,1,0,0,0,
	| 0,0,2,0,0,0,0,0,0,0,0,0,0,0,0,
	| 0,0,0,0,0,0,0,1,0,0,0,1,0,0,0,
	| 0,0,1,0,0,0,0,0,1,1,0,0,0,2,0,
	| 0,0,0,0,0,0,0,0,1,0,0,0,0,0,0,
	| 0,0,1,0,0,2,0,0,1,0,0,1,2,0,0,
	| 0,0,0,0,0,0,1,0,0,0,0,0,0,0,0,
	| 0,1,0,0,0,1,0,1,2,0,1,0,0,0,0,
	| 0,0,1,0,0,0,0,0,1,0,1,0,0,0,0,
	| 0,0,1,0,0,0,0,0,0,1,0,1,0,0,0,
	| 0,0,0,0,0,1,0,1,0,1,0,1,1,0,0,
	| 0,0,2,0,0,0,0,0,0,0,0,1,0,1,0,
	| 0,0,0,0,0,0,0,0,0,0,0,0,0,0,0, |];

% SumOfsreq = 112;

nResources = 21;
mastery = [| false,false,false,false,false,false,false,false,false,false,false,false,true,true,true,
	| false,false,false,false,false,false,false,false,false,false,false,true,false,false,false,
	| false,false,false,false,false,false,false,false,false,true,true,true,false,false,false,
	| false,false,true,false,false,false,true,true,true,false,false,true,false,true,true,
	| false,false,false,false,false,false,false,false,false,false,false,true,false,false,false,
	| false,false,false,false,false,false,true,true,true,false,false,false,false,false,false,
	| false,false,false,false,false,false,false,false,false,true,true,true,false,false,false,
	| false,false,false,false,false,false,false,false,false,true,true,true,true,true,true,
	| false,true,true,false,false,false,true,true,true,false,false,false,true,true,true,
	| false,false,false,true,true,true,false,false,false,false,false,false,false,false,false,
	| false,false,false,false,false,false,false,false,false,false,false,false,true,true,true,
	| false,false,false,false,false,false,false,false,true,false,false,false,false,false,false,
	| false,false,false,false,false,false,true,true,true,false,false,false,false,false,false,
	| true,true,true,false,false,false,false,false,false,false,false,false,false,false,false,
	| false,false,false,false,false,false,false,false,true,false,false,false,false,false,false,
	| false,true,true,false,false,false,false,false,false,false,false,false,false,false,false,
	| false,false,true,false,false,false,false,false,false,false,false,false,false,false,false,
	| false,false,false,true,true,true,false,false,false,false,false,false,false,false,false,
	| false,true,true,false,false,false,false,false,false,false,false,false,false,false,false,
	| false,false,false,false,false,false,true,true,true,false,false,false,false,false,false,
	| false,false,false,false,false,false,false,false,false,false,false,false,false,false,true, |];

nPrecs = 58;
pred = [1,1,1,2,2,3,3,3,4,5,5,5,6,6,7,7,7,8,9,9,9,10,10,10,11,11,12,12,13,14,15,15,16,16,17,17,17,18,18,19,19,19,20,20,20,21,22,23,24,24,25,26,27,28,28,29,30,31];
succ = [2,3,4,5,6,25,12,16,10,19,7,8,18,12,9,28,13,11,17,20,14,25,19,23,15,24,17,28,15,18,25,21,17,24,27,21,22,21,24,27,22,30,26,22,23,31,31,30,26,27,26,31,29,29,30,32,32,32];

nUnrels = 230;
unpred = [2,2,2,2,3,3,3,3,3,3,3,3,3,3,3,3,3,3,3,4,4,4,4,4,4,4,4,4,4,4,4,4,4,4,4,4,5,5,5,5,6,6,6,6,6,6,6,6,6,6,6,6,6,7,7,7,7,7,7,8,8,8,8,8,8,8,8,8,8,8,8,8,8,9,9,9,9,9,9,9,9,9,10,10,10,10,10,10,10,10,10,10,10,10,11,11,11,11,11,11,11,11,11,11,11,11,12,12,12,12,12,12,12,12,12,12,12,13,13,13,13,13,13,13,13,13,13,13,13,13,14,14,14,14,14,14,14,14,14,14,15,15,15,15,15,15,15,15,15,15,15,15,16,16,16,16,16,16,16,17,17,17,17,17,17,17,17,17,18,18,18,18,18,18,18,19,19,19,19,19,19,19,20,20,20,20,20,20,21,21,21,21,21,21,21,21,21,22,22,22,22,22,22,22,22,23,23,23,23,23,23,23,24,24,24,25,25,25,25,26,26,26,26,27,27,27,28,29,29,30];
unsucc = [3,4,10,16,4,5,6,7,8,9,10,11,13,14,15,18,19,20,23,5,6,7,8,9,11,12,13,14,15,16,17,18,20,21,24,28,6,10,12,16,7,8,9,10,11,13,14,15,16,19,20,23,25,8,10,11,12,16,19,9,10,12,13,14,16,17,18,19,20,22,23,28,30,10,11,12,13,15,16,19,25,28,11,12,13,14,15,16,17,18,20,21,24,28,12,13,14,16,17,18,19,20,22,23,28,30,13,14,15,16,18,19,20,23,24,25,26,14,16,17,18,19,20,22,23,24,27,28,29,30,15,16,17,19,20,22,23,25,28,30,16,17,18,19,20,22,23,24,27,28,29,30,18,19,20,23,25,28,30,18,19,20,23,24,25,26,28,30,19,20,22,23,25,28,30,20,21,23,24,25,26,28,21,24,25,27,28,29,22,23,24,25,26,27,28,29,30,23,24,25,26,27,28,29,30,24,25,26,27,28,29,31,25,28,30,27,28,29,30,27,28,29,30,28,30,31,31,30,31,31];

USEFUL_RES = [{},
	{4,6,9,10,13,14,16,17,18,19,20},
	{1,3,4,6,7,8,9,11,12,13,14,15,16,19,20},
	{4,6,9,12,13,15,20},
	{4,6,9,12,13,15,20},
	{1,4,8,9,11},
	{1,2,3,4,5,6,7,8,9,11,13,14,16,17,19,20},
	{1,2,3,4,5,7,8,9,10,11,18},
	{1,8,9,11},
	{2,3,4,5,6,7,8,9,10,12,13,14,15,16,18,19,20},
	{1,2,3,4,5,6,7,8,9,11,13,14,16,19,20,21},
	{3,7,8,9,10,14,16,18,19},
	{2,3,4,5,6,7,8,9,12,13,15,20},
	{1,2,3,4,5,6,7,8,9,10,11,12,13,15,18,20},
	{3,4,6,7,8,9,10,12,13,14,15,16,17,18,19,20},
	{1,4,6,8,9,10,11,12,13,14,15,16,17,18,19,20},
	{4,9,14,16,17,19},
	{1,4,6,8,9,10,11,13,14,16,17,18,19,20},
	{1,3,4,6,7,8,9,11,12,13,14,15,16,19,20},
	{2,3,4,5,6,7,8,9,12,13,14,15,16,17,19,20},
	{4,9,14,16,17,19},
	{2,3,4,5,6,7,8,9,13,20},
	{1,3,4,6,7,8,9,11,12,13,14,15,16,17,19,20},
	{4,6,9,12,13,15,20},
	{1,2,3,4,5,6,7,8,9,10,11,12,13,14,15,16,17,18,19,20},
	{4,6,9,13,20},
	{3,4,6,7,8,9,10,12,13,14,15,16,18,19,20},
	{3,4,6,7,8,9,12,13,14,15,16,17,19,20},
	{2,3,4,5,7,8,9,14,16,17,19},
	{1,2,3,4,5,6,7,8,9,10,11,13,18,20},
	{1,2,3,4,5,7,8,9,11,14,16,17,19},
	{}];

POTENTIAL_ACT = [{3,6,7,8,9,11,14,16,18,19,23,25,30,31},
	{7,8,10,11,13,14,20,22,25,29,30,31},
	{3,7,8,10,11,12,13,14,15,19,20,22,23,25,27,28,29,30,31},
	{2,3,4,5,6,7,8,10,11,13,14,15,16,17,18,19,20,21,22,23,24,25,26,27,28,29,30,31},
	{7,8,10,11,13,14,20,22,25,29,30,31},
	{2,3,4,5,7,10,11,13,14,15,16,18,19,20,22,23,24,25,26,27,28,30},
	{3,7,8,10,11,12,13,14,15,19,20,22,23,25,27,28,29,30,31},
	{3,6,7,8,9,10,11,12,13,14,15,16,18,19,20,22,23,25,27,28,29,30,31},
	{2,3,4,5,6,7,8,9,10,11,12,13,14,15,16,17,18,19,20,21,22,23,24,25,26,27,28,29,30,31},
	{2,8,10,12,14,15,16,18,25,27,30},
	{3,6,7,8,9,11,14,16,18,19,23,25,30,31},
	{3,4,5,10,13,14,15,16,19,20,23,24,25,27,28},
	{2,3,4,5,7,10,11,13,14,15,16,18,19,20,22,23,24,25,26,27,28,30},
	{2,3,7,10,11,12,15,16,17,18,19,20,21,23,25,27,28,29,31},
	{3,4,5,10,13,14,15,16,19,20,23,24,25,27,28},
	{2,3,7,10,11,12,15,16,17,18,19,20,21,23,25,27,28,29,31},
	{2,7,15,16,17,18,20,21,23,25,28,29,31},
	{2,8,10,12,14,15,16,18,25,27,30},
	{2,3,7,10,11,12,15,16,17,18,19,20,21,23,25,27,28,29,31},
	{2,3,4,5,7,10,11,13,14,15,16,18,19,20,22,23,24,25,26,27,28,30},
	{11}];
